Name: EasyAcademy8
Courses: 123
Rooms: 14
Days: 5
Periods_per_day: 10
Curricula: 23
Min_Max_Daily_Lectures: 3 7
UnavailabilityConstraints: 62
RoomConstraints: 1

COURSES:
c9108 t1273 5 2 205 0
c9109 t291 3 2 40 0
c9110 t1274 3 2 40 0
c9111 t1275 3 2 40 0
c9112 t1317 5 2 27 0
c9113 t315 3 2 27 0
c9114 t291 5 2 27 0
c9115 t308 7 4 40 0
c9116 t326 6 3 40 1
c9117 t1276 5 2 27 0
c9118 t1277 6 3 65 1
c9119 t1278 9 4 60 1
c9120 t1279 5 2 15 0
c9121 t290 5 2 15 0
c9122 t1280 5 2 10 0
c9123 t260 5 2 185 0
c9124 t275 4 3 145 0
c9125 t1273 5 2 175 0
c9126 t253 2 1 30 1
c9127 t263 2 1 30 1
c9128 t1281 3 2 30 0
c9129 t1282 2 1 30 1
c9130 t1283 2 1 30 1
c9131 t284 2 1 30 1
c9132 t1318 3 2 30 0
c9133 t1284 3 2 30 0
c9134 t276 5 2 30 0
c9135 t302 5 2 30 0
c9136 t1285 4 2 120 1
c9137 t1286 4 2 120 1
c9138 t1287 3 2 120 0
c9139 t1276 3 2 160 0
c9140 t307 1 1 10 0
c9141 t1288 5 2 80 0
c9142 t1289 4 1 70 1
c9143 t317 5 2 70 0
c9144 t317 1 1 10 0
c9145 t263 3 2 70 0
c9146 t1290 2 1 70 1
c9147 t263 1 1 10 0
c9149 t267 3 2 70 0
c9150 t279 2 1 70 1
c9151 t322 3 2 70 0
c9152 t327 3 2 70 0
c9153 t1291 3 2 70 0
c9154 t1292 4 2 70 1
c9155 t276 1 1 10 0
c9156 t276 1 1 10 0
c9157 t266 5 2 100 0
c9158 t269 4 2 100 1
c9159 t292 4 2 100 1
c9160 t1280 3 2 100 0
c9161 t1293 5 2 170 0
c9162 t281 5 2 170 0
c9163 t277 2 1 170 1
c9164 t1294 5 2 170 0
c9165 t1295 3 2 170 0
c9166 t303 1 1 10 0
c9167 t280 7 2 60 1
c9168 t1296 5 2 90 1
c9169 t1317 5 2 90 0
c9170 t300 5 2 90 0
c9171 t1297 9 2 90 1
c9172 t268 5 2 215 0
c9173 t282 5 2 150 0
c9174 t1294 5 2 295 0
c9175 t1274 5 2 10 0
c9176 t1298 2 1 10 1
c9177 t1283 3 2 10 0
c9178 t1299 2 1 10 1
c9179 t1300 5 2 10 0
c9180 t1298 3 2 10 0
c9181 t1301 3 2 10 0
c9182 t1282 3 2 10 0
c9183 t1296 5 2 10 1
c9184 t1302 5 2 10 0
c9185 t1303 5 2 10 0
c9186 t1304 3 2 10 0
c9187 t327 3 2 10 0
c9188 t1292 5 2 10 0
c9190 t304 4 2 15 1
c9191 t252 3 2 15 0
c9192 t1290 4 2 10 1
c9193 t270 3 2 15 0
c9194 t271 3 2 10 0
c9195 t278 4 2 10 1
c9196 t309 3 2 10 0
c9197 t1305 5 2 10 0
c9198 t303 4 2 16 1
c9199 t269 1 1 10 0
c9200 t277 3 2 10 0
c9201 t292 3 2 5 0
c9202 t264 4 2 15 1
c9203 t267 5 2 15 1
c9204 t254 5 2 15 0
c9205 t1293 2 1 10 1
c9206 t304 4 2 10 1
c9207 t297 3 2 10 0
c9208 t1306 3 2 10 0
c9209 t1307 5 3 10 0
c9210 t1308 5 2 12 0
c9211 t1321 5 2 2 0
c9212 t1319 5 2 20 0
c9213 t298 5 2 20 0
c9214 t1309 5 2 20 0
c9215 t1310 5 2 20 0
c9216 t1311 5 2 20 1
c9217 t1312 1 1 10 0
c9218 t1302 5 2 6 0
c9219 t295 5 2 6 0
c9220 no_teacher1 5 2 6 0
c9221 t1313 6 3 7 1
c9222 t314 6 3 7 1
c9223 t1314 6 3 7 1
c9224 t1315 5 2 7 0
c9225 t1306 5 2 7 0
c9226 t1316 5 2 7 0
c9227 t1320 3 2 100 0
c9228 t267 3 2 10 0
c9253 t1320 3 1 60 0
c9254 t305 5 2 5 0
c9255 t321 3 2 60 0
c10147 t290 5 2 50 0

ROOMS:
r282 30 0
r264 50 0
r265 30 1
r266 60 2
r267 80 2
r270 40 2
r271 68 2
r272 36 2
r273 40 2
r275 24 2
r277 90 2
r278 232 2
r279 336 2
r280 90 2

CURRICULA:
cu506 6 c9221 c9222 c9223 c9224 c9225 c9226
cu508 7 c9183 c9184 c9182 c9185 c9186 c9187 c9188
cu509 8 c9175 c9176 c9177 c9178 c9179 c9180 c9181 c9210
cu510 8 c9202 c9203 c9204 c9206 c9209 c9205 c9207 c9208
cu511 9 c9201 c9202 c9203 c9204 c9206 c9209 c9205 c9207 c9208
cu512 12 c9190 c9191 c9192 c9193 c9195 c9197 c9198 c9228 c9194 c9196 c9199 c9200
cu514 5 c9212 c9213 c9214 c9215 c9216
cu515 2 c9210 c9211
cu516 4 c9123 c9124 c9172 c9174
cu517 7 c9108 c9115 c9116 c9125 c9109 c9110 c9111
cu518 4 c9118 c9120 c9121 c9125
cu519 4 c9112 c9113 c9114 c9117
cu520 3 c9119 c9122 c9167
cu521 6 c9161 c9162 c9163 c9164 c9165 c9166
cu522 4 c9157 c9158 c9159 c9160
cu525 4 c9168 c9169 c9170 c9171
cu527 4 c9124 c9140 c9141 c9174
cu537 4 c9123 c9172 c9173 c9174
cu543 6 c9198 c9218 c9217 c9219 c9220 c9254
cu544 17 c9142 c9143 c9155 c9156 c9227 c9144 c9145 c9146 c9147 c9149 c9150 c9151 c9152 c9153 c9154 c9253 c9255
cu568 4 c9118 c9119 c9167 c10147
cu570 6 c9108 c9125 c9136 c9137 c9138 c9139
cu571 13 c9128 c9132 c9133 c9134 c9135 c9139 c9108 c9126 c9127 c9129 c9130 c9131 c9227

UNAVAILABILITY_CONSTRAINTS:
c9112 1 8
c9112 1 9
c9112 2 6
c9112 2 7
c9112 2 8
c9112 2 9
c9151 0 5
c9151 0 6
c9151 0 7
c9151 0 8
c9151 1 5
c9151 1 6
c9151 1 7
c9151 1 8
c9151 2 5
c9151 2 6
c9151 2 7
c9151 2 8
c9208 1 4
c9208 1 5
c9208 3 5
c9208 3 6
c9208 3 7
c9209 0 8
c9209 0 9
c9209 1 8
c9209 1 9
c9209 2 8
c9209 2 9
c9209 3 8
c9209 3 9
c9209 4 5
c9209 4 6
c9209 4 7
c9209 4 8
c9209 4 9
c9211 2 2
c9211 2 3
c9211 2 4
c9211 3 0
c9211 3 1
c9216 0 0
c9216 0 1
c9216 0 2
c9216 0 3
c9216 0 4
c9216 0 5
c9216 0 6
c9216 0 7
c9216 0 8
c9216 0 9
c9216 1 0
c9216 1 1
c9216 2 0
c9216 2 1
c9216 3 0
c9216 3 1
c9225 1 4
c9225 1 5
c9225 3 5
c9225 3 6
c9225 3 7

ROOM_CONSTRAINTS:
c9108 r282

END.
